StringID   Type       x          y          demand     ReadyTime  DueDate    ServiceTime 
D0         d          40.0       50.0       0.0        0.0        1236.0     0.0       
S0         f          40.0       50.0       0.0        0.0        1236.0     0.0       
S1         f          50.0       99.0       0.0        0.0        1236.0     0.0       
S2         f          54.0       7.0        0.0        0.0        1236.0     0.0       
S3         f          34.0       67.0       0.0        0.0        1236.0     0.0       
S4         f          63.0       53.0       0.0        0.0        1236.0     0.0       
S5         f          39.0       63.0       0.0        0.0        1236.0     0.0       
S6         f          46.0       76.0       0.0        0.0        1236.0     0.0       
S7         f          28.0       66.0       0.0        0.0        1236.0     0.0       
S8         f          18.0       38.0       0.0        0.0        1236.0     0.0       
S9         f          18.0       98.0       0.0        0.0        1236.0     0.0       
S10        f          13.0       81.0       0.0        0.0        1236.0     0.0       
S11        f          33.0       70.0       0.0        0.0        1236.0     0.0       
S12        f          91.0       79.0       0.0        0.0        1236.0     0.0       
S13        f          19.0       41.0       0.0        0.0        1236.0     0.0       
S14        f          13.0       95.0       0.0        0.0        1236.0     0.0       
S15        f          10.0       89.0       0.0        0.0        1236.0     0.0       
S16        f          43.0       62.0       0.0        0.0        1236.0     0.0       
S17        f          72.0       14.0       0.0        0.0        1236.0     0.0       
S18        f          46.0       57.0       0.0        0.0        1236.0     0.0       
S19        f          41.0       80.0       0.0        0.0        1236.0     0.0       
S20        f          82.0       28.0       0.0        0.0        1236.0     0.0       
C1         c          46.0       67.0       10.0       912.0      967.0      90.0      
C2         c          28.0       72.0       30.0       825.0      870.0      90.0      
C3         c          37.0       72.0       10.0       65.0       146.0      90.0      
C4         c          35.0       71.0       10.0       727.0      782.0      90.0      
C5         c          48.0       66.0       10.0       15.0       67.0       90.0      
C6         c          24.0       74.0       20.0       621.0      702.0      90.0      
C7         c          15.0       79.0       20.0       170.0      225.0      90.0      
C8         c          1.0        94.0       20.0       255.0      324.0      90.0      
C9         c          16.0       85.0       10.0       534.0      605.0      90.0      
C10        c          17.0       83.0       10.0       357.0      410.0      90.0      
C11        c          36.0       70.0       10.0       448.0      505.0      90.0      
C12        c          40.0       73.0       20.0       652.0      721.0      90.0      
C13        c          34.0       70.0       30.0       30.0       92.0       90.0      
C14        c          30.0       74.0       10.0       567.0      620.0      90.0      
C15        c          34.0       74.0       40.0       384.0      429.0      90.0      
C16        c          31.0       70.0       40.0       475.0      528.0      90.0      
C17        c          39.0       68.0       20.0       99.0       148.0      90.0      
C18        c          36.0       72.0       20.0       179.0      254.0      90.0      
C19        c          20.0       70.0       10.0       278.0      345.0      90.0      
C20        c          29.0       54.0       10.0       10.0       73.0       90.0      
C21        c          23.0       51.0       20.0       914.0      965.0      90.0      
C22        c          22.0       55.0       20.0       812.0      883.0      90.0      
C23        c          29.0       52.0       10.0       732.0      777.0      90.0      
C24        c          33.0       52.0       10.0       65.0       144.0      90.0      
C25        c          26.0       55.0       40.0       169.0      224.0      90.0      
C26        c          23.0       53.0       10.0       622.0      701.0      90.0      
C27        c          27.0       54.0       10.0       261.0      316.0      90.0      
C28        c          27.0       58.0       20.0       546.0      593.0      90.0      
C29        c          29.0       56.0       10.0       358.0      405.0      90.0      
C30        c          39.0       51.0       10.0       449.0      504.0      90.0      
C31        c          8.0        36.0       20.0       200.0      237.0      90.0      
C32        c          9.0        27.0       30.0       31.0       100.0      90.0      
C33        c          8.0        35.0       40.0       87.0       158.0      90.0      
C34        c          9.0        46.0       20.0       751.0      816.0      90.0      
C35        c          10.0       45.0       10.0       283.0      344.0      90.0      
C36        c          6.0        44.0       10.0       665.0      716.0      90.0      
C37        c          3.0        41.0       20.0       383.0      434.0      90.0      
C38        c          3.0        39.0       30.0       479.0      522.0      90.0      
C39        c          2.0        38.0       20.0       567.0      624.0      90.0      
C40        c          33.0       33.0       10.0       264.0      321.0      90.0      
C41        c          31.0       34.0       10.0       166.0      235.0      90.0      
C42        c          28.0       34.0       20.0       68.0       149.0      90.0      
C43        c          32.0       27.0       10.0       16.0       80.0       90.0      
C44        c          36.0       35.0       10.0       359.0      412.0      90.0      
C45        c          29.0       33.0       10.0       541.0      600.0      90.0      
C46        c          29.0       38.0       30.0       448.0      509.0      90.0      
C47        c          31.0       31.0       10.0       1054.0     1127.0     90.0      
C48        c          28.0       29.0       10.0       632.0      693.0      90.0      
C49        c          27.0       32.0       10.0       1001.0     1066.0     90.0      
C50        c          28.0       33.0       10.0       815.0      880.0      90.0      
C51        c          28.0       31.0       10.0       725.0      786.0      90.0      
C52        c          28.0       22.0       10.0       912.0      969.0      90.0      
C53        c          43.0       2.0        20.0       286.0      347.0      90.0      
C54        c          43.0       11.0       40.0       186.0      257.0      90.0      
C55        c          38.0       11.0       10.0       95.0       158.0      90.0      
C56        c          41.0       11.0       30.0       385.0      436.0      90.0      
C57        c          41.0       12.0       40.0       35.0       87.0       90.0      
C58        c          41.0       18.0       30.0       471.0      534.0      90.0      
C59        c          44.0       4.0        10.0       651.0      740.0      90.0      
C60        c          40.0       16.0       20.0       562.0      629.0      90.0      
C61        c          52.0       26.0       10.0       531.0      610.0      90.0      
C62        c          54.0       35.0       20.0       262.0      317.0      90.0      
C63        c          54.0       31.0       50.0       171.0      218.0      90.0      
C64        c          49.0       37.0       10.0       632.0      693.0      90.0      
C65        c          51.0       32.0       10.0       76.0       129.0      90.0      
C66        c          46.0       32.0       10.0       826.0      875.0      90.0      
C67        c          47.0       39.0       10.0       12.0       77.0       90.0      
C68        c          50.0       36.0       10.0       734.0      777.0      90.0      
C69        c          53.0       28.0       10.0       916.0      969.0      90.0      
C70        c          93.0       32.0       30.0       387.0      456.0      90.0      
C71        c          92.0       23.0       20.0       293.0      360.0      90.0      
C72        c          48.0       27.0       10.0       450.0      505.0      90.0      
C73        c          94.0       33.0       10.0       478.0      551.0      90.0      
C74        c          51.0       29.0       50.0       353.0      412.0      90.0      
C75        c          38.0       60.0       20.0       997.0      1068.0     90.0      
C76        c          90.0       36.0       10.0       203.0      260.0      90.0      
C77        c          91.0       34.0       10.0       574.0      643.0      90.0      
C78        c          82.0       35.0       20.0       109.0      170.0      90.0      
C79        c          94.0       34.0       10.0       668.0      731.0      90.0      
C80        c          86.0       31.0       10.0       769.0      820.0      90.0      
C81        c          91.0       24.0       30.0       47.0       124.0      90.0      
C82        c          58.0       83.0       20.0       369.0      420.0      90.0      
C83        c          65.0       49.0       10.0       265.0      338.0      90.0      
C84        c          64.0       69.0       20.0       458.0      523.0      90.0      
C85        c          61.0       99.0       30.0       555.0      612.0      90.0      
C86        c          61.0       60.0       10.0       173.0      238.0      90.0      
C87        c          59.0       51.0       20.0       85.0       144.0      90.0      
C88        c          70.0       50.0       30.0       645.0      708.0      90.0      
C89        c          75.0       54.0       10.0       737.0      802.0      90.0      
C90        c          62.0       49.0       10.0       20.0       84.0       90.0      
C91        c          73.0       42.0       10.0       836.0      889.0      90.0      
C92        c          55.0       89.0       20.0       368.0      441.0      90.0      
C93        c          57.0       94.0       40.0       475.0      518.0      90.0      
C94        c          65.0       74.0       10.0       285.0      336.0      90.0      
C95        c          72.0       52.0       30.0       196.0      239.0      90.0      
C96        c          65.0       59.0       10.0       95.0       156.0      90.0      
C97        c          63.0       75.0       30.0       561.0      622.0      90.0      
C98        c          73.0       71.0       20.0       30.0       84.0       90.0      
C99        c          60.0       79.0       10.0       743.0      820.0      90.0      
C100       c          75.0       67.0       20.0       647.0      726.0      90.0      

Q xxxxxxxxxxxxxxxxxxxx /62.14/
C xxxxxxxxxxxxxxxxxxxxx /200.0/
r xxxxxxxxxxxxxx /1.0/
g xxxxxxxxxxxxxxxxxxxxxxx /0.48/
v xxxxxxxxxxxxxxx /1.0/
